6 2
689 472 398 902 354 837
0 376 384 708 478 812 603
339 0 925 380 136 30 915
94 894 0 618 849 948 640
511 589 814 0 534 848 461
66 367 464 505 0 321 168
536 40 194 307 317 0 2
716 127 734 997 637 504 0